rehearsal = [[1,0,1,0,1,1,1,1,1,0,1,1,0,1,1], [1,1,1,1,1,1,0,1,1,1,1,0,1,1,1], [1,1,1,1,1,1,0,1,1,1,1,1,1,0,0], [1,0,1,1,1,1,1,1,1,1,1,1,1,0,1], [1,1,1,0,1,1,1,1,1,1,1,1,1,1,1], [0,1,1,1,1,1,1,1,1,1,1,0,1,1,1], [1,1,1,1,1,1,1,1,1,1,1,1,1,0,1], [1,1,1,1,1,0,1,0,1,1,1,0,1,1,0], [1,1,0,1,1,0,0,1,0,0,1,1,0,1,1], [0,1,1,1,1,1,1,1,1,1,1,1,1,1,1], [1,1,1,1,1,0,1,1,1,1,1,1,1,1,0], [1,1,1,1,0,1,1,1,1,1,1,1,1,1,0], [1,1,1,1,1,1,1,1,1,1,1,1,0,1,1], [1,1,1,1,0,1,0,1,1,1,1,1,1,1,1], [1,1,1,1,1,1,1,1,1,0,0,1,1,1,1], [1,1,1,1,1,1,1,1,1,1,1,1,1,1,1], [1,1,1,1,1,1,1,0,1,0,1,1,1,1,1], [1,0,1,1,1,1,1,0,1,1,1,1,0,1,1], [1,1,1,1,1,1,1,1,1,0,1,1,1,1,1], [1,1,1,1,1,1,1,1,1,1,1,0,0,0,1], [0,1,1,1,1,1,1,1,1,0,1,1,1,1,1], [0,1,1,1,1,0,1,1,1,1,1,1,1,1,1], [1,0,0,1,0,1,1,1,1,1,1,1,1,1,1], [1,1,1,1,1,1,0,1,1,1,1,1,1,1,0], [1,0,1,1,0,1,1,1,1,1,1,1,1,1,1], [1,1,1,1,1,1,1,1,1,1,1,0,1,0,1], [1,1,1,1,1,1,1,1,1,1,1,1,1,1,1], [1,1,1,1,1,1,1,1,1,1,1,1,1,1,1], [1,1,1,0,0,0,1,1,1,0,0,1,1,1,1], [1,0,1,1,1,1,0,1,0,0,1,1,1,1,0], [1,1,1,0,1,1,1,1,1,0,1,1,1,1,1], [1,1,1,0,1,1,1,1,0,1,0,1,1,1,0], [0,1,1,1,1,1,1,1,1,1,0,1,1,1,1], [1,1,1,1,0,1,1,1,1,1,1,1,1,1,1], [1,0,1,0,1,1,1,1,1,1,1,1,1,1,1], [1,1,1,1,0,1,1,1,0,1,1,1,1,1,1], [1,1,1,1,1,0,0,1,1,1,1,1,1,1,1], [1,0,1,1,1,1,1,1,0,1,0,0,1,1,0], [1,1,1,0,1,1,1,1,1,1,1,1,1,1,1], [1,1,1,1,1,1,1,0,1,1,1,1,1,0,1], [1,0,1,1,1,1,0,1,1,1,1,1,1,1,1], [1,1,1,1,1,1,1,1,1,0,0,1,1,1,1], [1,1,1,0,1,1,1,1,0,1,1,0,0,1,1], [1,1,1,1,1,0,1,1,1,1,0,1,1,0,1], [1,1,1,1,1,1,1,1,1,1,1,1,1,0,0], [1,1,1,1,1,1,1,1,1,1,1,1,1,1,1], [1,1,1,1,1,1,1,1,1,1,0,1,1,1,1], [1,1,1,1,0,1,0,1,1,1,1,1,1,1,1], [0,1,1,1,1,1,0,1,1,1,1,0,0,1,0], [1,1,1,1,0,1,0,1,1,0,1,1,1,1,1]];
permutations = [5,2,3,12,4,1,8,11,15,14,13,6,9,7,10];